benchmarks_vrp/CMT3/fixed_c/CMT3_2.vrp
NAME: CMT3_2
TYPE: CVRP
COMMENT: 826.14 - Cluster Nr.2
DIMENSION: 10
CAPACITY: 200
EDGE_WEIGHT_TYPE: EUC_2D
NODE_COORD_TYPE: TWOD_COORDS
NODE_COORD_SECTION: 
8 24 58
7 31 67
3 30 60
9 20 65
4 6 68
1 15 77
5 27 69
10 35 69
2 15 60
6 35 35
DEPOT_SECTION: 
6
-1
DEMAND_SECTION: 
10 23
6 0
1 9
5 10
7 3
4 30
3 16
2 17
9 12
8 19
EOF
