benchmarks_vrp/CMT3/fixed_c/CMT3_2.tour
NAME: CMT3_2 solution
TYPE: TOUR
TOUR_SECTION:
6 3 10 7 5 1 4 2 9 8 -1
-1
EOF